feasible solution found by trivial heuristic after 0.0 seconds, objective value 0.000000e+00
presolving:
(round 1, fast)       2975 del vars, 0 del conss, 0 add conss, 202 chg bounds, 0 chg sides, 202 chg coeffs, 0 upgd conss, 0 impls, 6043 clqs
   (0.2s) running MILP presolver
   (0.2s) MILP presolver (2 rounds): 0 aggregations, 0 fixings, 0 bound changes
(round 2, exhaustive) 2975 del vars, 56 del conss, 0 add conss, 202 chg bounds, 0 chg sides, 202 chg coeffs, 0 upgd conss, 0 impls, 6043 clqs
(round 3, exhaustive) 2975 del vars, 56 del conss, 0 add conss, 202 chg bounds, 0 chg sides, 202 chg coeffs, 10445 upgd conss, 0 impls, 6043 clqs
(round 4, exhaustive) 2975 del vars, 56 del conss, 0 add conss, 202 chg bounds, 0 chg sides, 2828 chg coeffs, 10445 upgd conss, 1776 impls, 6043 clqs
   (3.3s) probing: 51/1668 (3.1%) - 0 fixings, 0 aggregations, 0 implications, 0 bound changes
   (3.3s) probing aborted: 50/50 successive totally useless probings
   (3.5s) symmetry computation started: requiring (bin +, int -, cont +), (fixed: bin -, int +, cont -)
   (3.5s) no symmetry present
   (3.5s) symmetry computation started: requiring (bin +, int +, cont +), (fixed: bin -, int -, cont -)
   (3.5s) no symmetry present
presolving (5 rounds: 5 fast, 4 medium, 4 exhaustive):
 2975 deleted vars, 56 deleted constraints, 0 added constraints, 202 tightened bounds, 0 added holes, 0 changed sides, 2828 changed coefficients
 1776 implications, 8560 cliques
presolved problem has 3444 variables (1668 bin, 266 int, 0 impl, 1510 cont) and 10747 constraints
   1776 constraints of type <varbound>
   2626 constraints of type <knapsack>
   6043 constraints of type <setppc>
    302 constraints of type <linear>
Presolving Time: 3.50

 time | node  | left  |LP iter|LP it/n|mem/heur|mdpt |vars |cons |rows |cuts |sepa|confs|strbr|  dualbound   | primalbound  |  gap   | compl. 
t 3.5s|     1 |     0 |     0 |     - | trivial|   0 |3444 |  10k|   0 |   0 |  0 |   0 |   0 | 4.354084e+05 | 3.952222e+05 |  10.17%| unknown
i 3.7s|     1 |     0 |     0 |     - |  oneopt|   0 |3444 |  10k|  10k|   0 |  0 |   0 |   0 | 4.354084e+05 | 3.956741e+05 |  10.04%| unknown
  4.3s|     1 |     0 |  4395 |     - |   163M |   0 |3444 |  10k|  10k|   0 |  0 |   0 |   0 | 3.982235e+05 | 3.956741e+05 |   0.64%| unknown
  4.5s|     1 |     0 |  4426 |     - |   168M |   0 |3444 |  10k|  10k|   2 |  1 |   0 |   0 | 3.982138e+05 | 3.956741e+05 |   0.64%| unknown
  4.7s|     1 |     0 |  4478 |     - |   171M |   0 |3444 |  10k|  10k|   5 |  2 |   0 |   0 | 3.982019e+05 | 3.956741e+05 |   0.64%| unknown
  4.8s|     1 |     0 |  4522 |     - |   177M |   0 |3444 |  10k|  10k|   7 |  3 |   0 |   0 | 3.981950e+05 | 3.956741e+05 |   0.64%| unknown
  5.0s|     1 |     0 |  4628 |     - |   181M |   0 |3444 |  10k|  10k|  10 |  4 |   1 |   0 | 3.981512e+05 | 3.956741e+05 |   0.63%| unknown
  5.2s|     1 |     0 |  4643 |     - |   187M |   0 |3444 |  10k|  10k|  12 |  5 |   2 |   0 | 3.981497e+05 | 3.956741e+05 |   0.63%| unknown
  5.4s|     1 |     0 |  4660 |     - |   191M |   0 |3444 |  10k|  10k|  14 |  6 |   2 |   0 | 3.981486e+05 | 3.956741e+05 |   0.63%| unknown
  5.6s|     1 |     0 |  4692 |     - |   196M |   0 |3444 |  10k|  10k|  15 |  7 |   2 |   0 | 3.981435e+05 | 3.956741e+05 |   0.62%| unknown
  5.8s|     1 |     0 |  4699 |     - |   202M |   0 |3444 |  10k|  10k|  16 |  8 |   2 |   0 | 3.981419e+05 | 3.956741e+05 |   0.62%| unknown
  6.0s|     1 |     0 |  4715 |     - |   206M |   0 |3444 |  10k|  10k|  17 |  9 |   2 |   0 | 3.981408e+05 | 3.956741e+05 |   0.62%| unknown
  6.2s|     1 |     0 |  4732 |     - |   209M |   0 |3444 |  10k|  10k|  18 | 10 |   2 |   0 | 3.981402e+05 | 3.956741e+05 |   0.62%| unknown
  6.2s|     1 |     0 |  4749 |     - |   211M |   0 |3444 |  10k|  10k|  19 | 11 |   2 |   0 | 3.981365e+05 | 3.956741e+05 |   0.62%| unknown
  6.3s|     1 |     0 |  4774 |     - |   213M |   0 |3444 |  10k|  10k|  21 | 12 |   2 |   0 | 3.981355e+05 | 3.956741e+05 |   0.62%| unknown
 time | node  | left  |LP iter|LP it/n|mem/heur|mdpt |vars |cons |rows |cuts |sepa|confs|strbr|  dualbound   | primalbound  |  gap   | compl. 
  6.4s|     1 |     0 |  4787 |     - |   214M |   0 |3444 |  10k|  10k|  22 | 13 |   2 |   0 | 3.981346e+05 | 3.956741e+05 |   0.62%| unknown
  6.4s|     1 |     0 |  4839 |     - |   215M |   0 |3444 |  10k|  10k|  23 | 14 |   2 |   0 | 3.981277e+05 | 3.956741e+05 |   0.62%| unknown
  6.5s|     1 |     0 |  4862 |     - |   217M |   0 |3444 |  10k|  10k|  24 | 15 |   2 |   0 | 3.981261e+05 | 3.956741e+05 |   0.62%| unknown
  6.6s|     1 |     0 |  4882 |     - |   218M |   0 |3444 |  10k|  10k|  26 | 16 |   2 |   0 | 3.981243e+05 | 3.956741e+05 |   0.62%| unknown
  6.6s|     1 |     0 |  4893 |     - |   219M |   0 |3444 |  10k|  10k|  27 | 17 |   2 |   0 | 3.981241e+05 | 3.956741e+05 |   0.62%| unknown
  6.7s|     1 |     0 |  4938 |     - |   219M |   0 |3444 |  10k|  10k|  28 | 18 |   2 |   0 | 3.981192e+05 | 3.956741e+05 |   0.62%| unknown
  6.8s|     1 |     0 |  4967 |     - |   221M |   0 |3444 |  10k|  10k|  29 | 19 |   2 |   0 | 3.981173e+05 | 3.956741e+05 |   0.62%| unknown
  6.8s|     1 |     0 |  4992 |     - |   223M |   0 |3444 |  10k|  10k|  30 | 20 |   3 |   0 | 3.981164e+05 | 3.956741e+05 |   0.62%| unknown
  6.9s|     1 |     0 |  4995 |     - |   223M |   0 |3444 |  10k|  10k|  31 | 21 |   4 |   0 | 3.981164e+05 | 3.956741e+05 |   0.62%| unknown
d 7.1s|     1 |     0 |  5526 |     - |farkasdi|   0 |3444 |  10k|  10k|   0 | 23 |   4 |   0 | 3.981164e+05 | 3.966227e+05 |   0.38%| unknown
  7.5s|     1 |     0 |  5778 |     - |   223M |   0 |3444 |  10k|  10k|  31 | 23 |   4 |   0 | 3.981164e+05 | 3.966227e+05 |   0.38%| unknown
  7.6s|     1 |     0 |  5791 |     - |   223M |   0 |3444 |  10k|  10k|  32 | 24 |   5 |   0 | 3.981157e+05 | 3.966227e+05 |   0.38%| unknown
  7.6s|     1 |     0 |  5805 |     - |   223M |   0 |3444 |  10k|  10k|  33 | 25 |   6 |   0 | 3.981156e+05 | 3.966227e+05 |   0.38%| unknown
 10.1s|     1 |     2 |  5805 |     - |   223M |   0 |3444 |  10k|  10k|  33 | 25 |   7 |  34 | 3.980402e+05 | 3.966227e+05 |   0.36%| unknown
*13.8s|     4 |     3 |  6491 | 489.7 |strongbr|   3 |3444 |  10k|  10k|  33 |  3 |  19 | 126 | 3.980355e+05 | 3.967174e+05 |   0.33%| unknown
 time | node  | left  |LP iter|LP it/n|mem/heur|mdpt |vars |cons |rows |cuts |sepa|confs|strbr|  dualbound   | primalbound  |  gap   | compl. 
*13.8s|     4 |     3 |  6491 | 489.7 |strongbr|   3 |3444 |  10k|  10k|  33 |  3 |  19 | 127 | 3.980355e+05 | 3.967655e+05 |   0.32%| unknown
*20.0s|    13 |     4 |  7275 | 187.8 |strongbr|   7 |3444 |  10k|  10k|  33 |  4 |  26 | 278 | 3.979196e+05 | 3.968566e+05 |   0.27%|  17.11%
*20.8s|    15 |     4 |  7560 | 181.3 |strongbr|   8 |3444 |  10k|  10k|  33 |  3 |  31 | 307 | 3.979196e+05 | 3.968608e+05 |   0.27%|  18.06%
*21.9s|    21 |     4 |  7869 | 142.3 |strongbr|  11 |3444 |  10k|  10k|  46 |  1 |  39 | 329 | 3.979196e+05 | 3.969606e+05 |   0.24%|  20.66%
*21.9s|    21 |     4 |  7869 | 142.3 |strongbr|  11 |3444 |  10k|  10k|  46 |  1 |  39 | 330 | 3.979196e+05 | 3.970039e+05 |   0.23%|  20.66%
*22.0s|    21 |     4 |  7879 | 142.8 |    LP  |  11 |3444 |  10k|  10k|  46 |  2 |  39 | 333 | 3.979196e+05 | 3.970257e+05 |   0.23%|  20.66%
*25.3s|    28 |     5 |  8551 | 130.7 |strongbr|  11 |3444 |  10k|  10k|  46 |  2 |  42 | 420 | 3.979083e+05 | 3.970471e+05 |   0.22%|  22.07%
*25.3s|    28 |     5 |  8556 | 130.9 |    LP  |  11 |3444 |  10k|  10k|  46 |  4 |  42 | 422 | 3.979083e+05 | 3.971053e+05 |   0.20%|  22.07%
*25.7s|    30 |     5 |  8650 | 125.1 |strongbr|  11 |3444 |  10k|  10k|  46 |  3 |  42 | 433 | 3.979083e+05 | 3.972086e+05 |   0.18%|  22.63%
*26.0s|    32 |     5 |  8772 | 121.0 |    LP  |  11 |3444 |  10k|  10k|  51 |  4 |  46 | 441 | 3.979083e+05 | 3.972758e+05 |   0.16%|  23.07%
*26.2s|    33 |     4 |  8871 | 120.3 |    LP  |  11 |3444 |  10k|  10k|  60 |  6 |  46 | 441 | 3.979083e+05 | 3.972795e+05 |   0.16%|  23.10%
r36.9s|    63 |     7 | 11675 | 107.3 |ziroundi|  13 |3444 |  10k|  10k|  77 |  2 | 105 | 704 | 3.978525e+05 | 3.973665e+05 |   0.12%|  33.78%
*41.0s|    85 |     5 | 13259 |  98.1 |    LP  |  13 |3444 |  10k|  10k|  89 |  2 | 148 | 788 | 3.977725e+05 | 3.973764e+05 |   0.10%|  50.47%
 43.5s|   100 |     6 | 14534 |  96.1 |   260M |  13 |3444 |  10k|  10k| 102 |  4 | 155 | 829 | 3.976323e+05 | 3.973764e+05 |   0.06%|  57.12%

SCIP Status        : problem is solved [optimal solution found]
Solving Time (sec) : 47.05
Solving Nodes      : 142
Primal Bound       : +3.97376426566850e+05 (52 solutions)
Dual Bound         : +3.97376426566850e+05
Gap                : 0.00 %
Solve Status: optimal
Solve Time: 47.05 seconds
